65 82 88 2 45 70 61 72 54 96 
90 68 39 42 44 41 43 40 36 94 
10 73 8 3 7 46 4 80 
50 85 21 24 57 74 86 52 
56 66 69 98 53 14 55 78 
93 71 81 67 84 63 51 91 
64 19 22 23 48 18 49 20 77 
60 17 15 9 87 59 97 13 
83 95 62 34 31 29 27 26 28 
16 12 47 79 6 5 1 100 
92 33 76 89 32 30 
37 35 38 25 
11 99 75 58 

